
;this file is automatically generated: Tue Oct 27 10:35:00 CST 2020

;declarations generated

(declare-fun oclExcludes ( Int Int) Bool)
(declare-fun class3_Class3IntAttr4 ( Int) Int)
(declare-fun class3_Class3IntAttr3 ( Int) Int)
(declare-fun Cardinality ( Int) Int)
(declare-fun obj_c0f793e3_fd06_4b18_894d_4a5c8669edef ( Int) Int)
(declare-fun oclSelect ( Int Bool) Int)
(declare-fun type_45e5d388_36ac_461f_a02a_216a0ed4ecfb_Class8 ( Int) Bool)
(declare-fun type_45e5d388_36ac_461f_a02a_216a0ed4ecfb_Class3 ( Int) Bool)
(declare-fun type_45e5d388_36ac_461f_a02a_216a0ed4ecfb_Class1 ( Int) Bool)
(declare-fun Enum0 ( Int) Int)
(declare-fun Enum1 ( Int) Int)
(declare-fun Enum2 ( Int) Int)
(declare-fun container_ ( Int) Int)
(declare-fun type_45e5d388_36ac_461f_a02a_216a0ed4ecfb_Class24 ( Int) Bool)
(declare-fun oclIncludes ( Int Int) Bool)
(declare-fun ObjAt ( Int Int) Int)

;formula(s) generated
(assert (! (forall ((c3_2 Int)(c3_1 Int)) (=> (and (and (and (and ( type_45e5d388_36ac_461f_a02a_216a0ed4ecfb_Class3 c3_1 )  ( type_45e5d388_36ac_461f_a02a_216a0ed4ecfb_Class24 c3_1 ) ) ( type_45e5d388_36ac_461f_a02a_216a0ed4ecfb_Class8 c3_1 ) ) ( type_45e5d388_36ac_461f_a02a_216a0ed4ecfb_Class1 c3_1 ) ) (and (and (and ( type_45e5d388_36ac_461f_a02a_216a0ed4ecfb_Class3 c3_2 )  ( type_45e5d388_36ac_461f_a02a_216a0ed4ecfb_Class24 c3_2 ) ) ( type_45e5d388_36ac_461f_a02a_216a0ed4ecfb_Class8 c3_2 ) ) ( type_45e5d388_36ac_461f_a02a_216a0ed4ecfb_Class1 c3_2 ) )) (<= ( class3_Class3IntAttr4 ( obj_c0f793e3_fd06_4b18_894d_4a5c8669edef c3_1 )  )  ( class3_Class3IntAttr3 ( obj_c0f793e3_fd06_4b18_894d_4a5c8669edef c3_2 )  ) ))):named l0))
(assert (! (forall ((v Int)) (=> (and (and (and ( type_45e5d388_36ac_461f_a02a_216a0ed4ecfb_Class3 v )  ( type_45e5d388_36ac_461f_a02a_216a0ed4ecfb_Class24 v ) ) ( type_45e5d388_36ac_461f_a02a_216a0ed4ecfb_Class8 v ) ) ( type_45e5d388_36ac_461f_a02a_216a0ed4ecfb_Class1 v ) ) (< ( class3_Class3IntAttr4 ( obj_c0f793e3_fd06_4b18_894d_4a5c8669edef v )  )  9))):named l1))
(assert (exists ((o Int)) (and (and (and ( type_45e5d388_36ac_461f_a02a_216a0ed4ecfb_Class3 ( obj_c0f793e3_fd06_4b18_894d_4a5c8669edef o )  )  ( type_45e5d388_36ac_461f_a02a_216a0ed4ecfb_Class24 ( obj_c0f793e3_fd06_4b18_894d_4a5c8669edef o )  ) ) ( type_45e5d388_36ac_461f_a02a_216a0ed4ecfb_Class8 ( obj_c0f793e3_fd06_4b18_894d_4a5c8669edef o )  ) ) ( type_45e5d388_36ac_461f_a02a_216a0ed4ecfb_Class1 ( obj_c0f793e3_fd06_4b18_894d_4a5c8669edef o )  ) )))

 ;end of formula 